proyfinal/src/viki/013/experimentInOfficeAgust.take6.output/c8af081f-cf76-4f37-bf6f-1c75412a5eb0.als.dat
{'cnf.clauses': '118081',
 'cnf.totvars': '69608',
 'conflict literals': '107',
 'conflicts': '38',
 'decisions': '11124',
 'memused.mb': '17.06',
 'outcome': 'UNSAT',
 'propagations': '46310',
 'restarts': '1',
 'solver.msecs': 34,
 'task.msecs': 166}
