proyfinal/src/viki/013/experimentInOfficeAgust.take6.output/c8af081f-cf76-4f37-bf6f-1c75412a5eb0.als.out
Reading from standard input... Use '--help' for help.
============================[ Problem Statistics ]=============================
|                                                                             |
|  Number of variables:         69608                                         |
|  Number of clauses:          118081                                         |
|  Parse time:                   0.02 s                                       |
|                                                                             |
============================[ Search Statistics ]==============================
| Conflicts |          ORIGINAL         |          LEARNT          | Progress |
|           |    Vars  Clauses Literals |    Limit  Clauses Lit/Cl |          |
===============================================================================
===============================================================================
restarts              : 1
conflicts             : 38             (1105 /sec)
decisions             : 11124          (0.00 % random) (323598 /sec)
propagations          : 46310          (1347161 /sec)
conflict literals     : 107            (2.73 % deleted)
Memory used           : 17.06 MB
CPU time              : 0.034376 s

UNSATISFIABLE
